
Gurobi 6.5.2 (win64) logging started 07/24/16 17:29:39


Gurobi 6.5.2 (win64) logging started 07/24/16 17:29:39

Optimize a model with 2602 rows, 742 columns and 6819 nonzeros
Coefficient statistics:
  Matrix range    [6e-08, 1e+03]
  Objective range [1e+00, 1e+00]
  Bounds range    [1e+00, 1e+00]
  RHS range       [6e-06, 2e+03]
Presolve removed 2363 rows and 494 columns
Presolve time: 0.00s
Presolved: 239 rows, 248 columns, 1035 nonzeros
Variable types: 248 continuous, 0 integer (0 binary)

Root relaxation: objective 2.215399e+01, 226 iterations, 0.00 seconds

    Nodes    |    Current Node    |     Objective Bounds      |     Work
 Expl Unexpl |  Obj  Depth IntInf | Incumbent    BestBd   Gap | It/Node Time

*    0     0               0      22.1539925   22.15399  0.00%     -    0s

Explored 0 nodes (226 simplex iterations) in 0.02 seconds
Thread count was 8 (of 8 available processors)

Optimal solution found (tolerance 1.00e-04)
Best objective 2.215399253228e+01, best bound 2.215399253228e+01, gap 0.0%

Wrote requested result file 'H1\instance13\\Results13EC_Sol3.lp'

